CPXPARAM_TimeLimit                               7200
CPXPARAM_Read_DataCheck                          1
Parallel mode: deterministic, using up to 8 threads for concurrent optimization.
Tried aggregator 1 time.
LP Presolve eliminated 165 rows and 0 columns.
Reduced LP has 9945 rows, 1801 columns, and 29115 nonzeros.
Presolve time = 0.00 sec. (4.55 ticks)

Iteration log . . .
Iteration:     1   Dual objective     =          1197.000000
Perturbation started.
Iteration:   214   Dual objective     =          1197.000000
Initializing dual steep norms . . .
Iteration:   215   Dual objective     =          1197.000064
Iteration:   495   Dual objective     =          1197.014082
Iteration:   730   Dual objective     =          1197.014633
Iteration:   991   Dual objective     =          1197.015109
Iteration:  1191   Dual objective     =          1197.015321
Iteration:  1379   Dual objective     =          1197.015532
Iteration:  1561   Dual objective     =          1197.015645
Iteration:  1772   Dual objective     =          1197.016042
Iteration:  1966   Dual objective     =          1197.016061
Iteration:  2181   Dual objective     =          1197.016229
Removing perturbation.

Dual simplex solved model.

